AirAmbulance/airambulance.log~2
--- Job AirAmbulance.gms Start 08/04/20 15:01:40 31.1.0 r55b6ce3 WEX-WEI x86 64bit/MS Windows
--- Applying:
    E:\31.1\gmsprmNT.txt
--- GAMS Parameters defined
    Input C:\Users\hasee\Documents\GitHub\GAMS-MIRO\AirAmbulance\AirAmbulance.gms
    PageSize 0
    Action C
    ScrDir C:\Users\hasee\Documents\GitHub\GAMS-MIRO\AirAmbulance\225a\
    SysDir E:\31.1\
    LogOption 3
    ErrMsg 1
    ErrorLog 99
    IDE 1
    LstTitleLeftAligned 1
    IDCJSON conf_AirAmbulance/AirAmbulance_io.json
GAMS 31.1.0   Copyright (C) 1987-2020 GAMS Development. All rights reserved
Licensee: Michael Ferris Research Group - Eval           G191008/0001AS-GEN
          UW-Madison Computer Sciences Dept.                         DCE244
          E:\31.1\gamslice.txt
          Evaluation license: Not for commercial or production use
--- Starting compilation
--- AirAmbulance.gms(71) 3 Mb
*** Status: Normal completion
--- Job AirAmbulance.gms Stop 08/04/20 15:01:40 elapsed 0:00:00.019

AirAmbulance.miroapp successfully deployed to location C:/Users/hasee/Documents/GitHub/GAMS-MIRO/AirAmbulance
